C432
1.0
4.000000 0.000000 0.000000
-0.000000 2.309401 0.000000
0.000000 0.000000 5.000000
C
432
direct
0.041667 0.000000 -0.000000 C
0.083333 0.375000 -0.000000 C
0.166667 0.375000 -0.000000 C
0.833333 0.375000 -0.000000 C
0.916667 0.375000 -0.000000 C
0.958333 0.000000 -0.000000 C
0.791667 0.250000 -0.000000 C
0.916667 0.625000 -0.000000 C
0.666667 0.375000 -0.000000 C
0.333333 0.625000 -0.000000 C
0.833333 0.125000 -0.000000 C
0.458333 0.250000 -0.000000 C
0.583333 0.375000 -0.000000 C
0.833333 0.625000 -0.000000 C
0.041667 0.250000 -0.000000 C
0.083333 0.625000 -0.000000 C
0.416667 0.375000 -0.000000 C
0.333333 0.375000 -0.000000 C
0.166667 0.625000 -0.000000 C
0.416667 0.625000 -0.000000 C
0.083333 0.125000 -0.000000 C
0.291667 0.250000 -0.000000 C
0.958333 0.250000 -0.000000 C
0.208333 0.250000 -0.000000 C
0.166667 0.125000 -0.000000 C
0.916667 0.125000 -0.000000 C
0.458333 0.500000 -0.000000 C
0.666667 0.875000 -0.000000 C
0.708333 0.250000 -0.000000 C
0.791667 0.500000 -0.000000 C
0.541667 0.500000 -0.000000 C
0.916667 0.875000 -0.000000 C
0.583333 0.875000 -0.000000 C
0.583333 0.625000 -0.000000 C
0.541667 0.250000 -0.000000 C
0.958333 0.500000 -0.000000 C
0.083333 0.875000 -0.000000 C
0.708333 0.500000 -0.000000 C
0.833333 0.875000 -0.000000 C
0.666667 0.625000 -0.000000 C
0.208333 0.500000 -0.000000 C
0.291667 0.500000 -0.000000 C
0.333333 0.875000 -0.000000 C
0.416667 0.875000 -0.000000 C
0.166667 0.875000 -0.000000 C
0.041667 0.500000 -0.000000 C
0.791667 0.750000 -0.000000 C
0.708333 0.750000 -0.000000 C
0.041667 0.750000 -0.000000 C
0.458333 0.750000 -0.000000 C
0.291667 0.750000 -0.000000 C
0.541667 0.750000 -0.000000 C
0.958333 0.750000 -0.000000 C
0.208333 0.750000 -0.000000 C
0.791667 1.000000 -0.000000 C
0.708333 1.000000 -0.000000 C
0.958333 1.000000 -0.000000 C
0.208333 1.000000 -0.000000 C
0.291667 1.000000 -0.000000 C
0.458333 1.000000 -0.000000 C
0.041667 1.000000 -0.000000 C
0.541667 1.000000 -0.000000 C
1.041667 0.000000 -0.000000 C
1.083333 0.375000 -0.000000 C
1.166667 0.375000 -0.000000 C
1.833333 0.375000 -0.000000 C
1.916667 0.375000 -0.000000 C
1.958333 0.000000 -0.000000 C
1.791667 0.250000 -0.000000 C
1.916667 0.625000 -0.000000 C
1.666667 0.375000 -0.000000 C
1.333333 0.625000 -0.000000 C
1.833333 0.125000 -0.000000 C
1.458333 0.250000 -0.000000 C
1.583333 0.375000 -0.000000 C
1.833333 0.625000 -0.000000 C
1.041667 0.250000 -0.000000 C
1.083333 0.625000 -0.000000 C
1.416667 0.375000 -0.000000 C
1.333333 0.375000 -0.000000 C
1.166667 0.625000 -0.000000 C
1.416667 0.625000 -0.000000 C
1.083333 0.125000 -0.000000 C
1.291667 0.250000 -0.000000 C
1.958333 0.250000 -0.000000 C
1.208333 0.250000 -0.000000 C
1.166667 0.125000 -0.000000 C
1.916667 0.125000 -0.000000 C
1.458333 0.500000 -0.000000 C
1.666667 0.875000 -0.000000 C
1.708333 0.250000 -0.000000 C
1.791667 0.500000 -0.000000 C
1.541667 0.500000 -0.000000 C
1.916667 0.875000 -0.000000 C
1.583333 0.875000 -0.000000 C
1.583333 0.625000 -0.000000 C
1.541667 0.250000 -0.000000 C
1.958333 0.500000 -0.000000 C
1.083333 0.875000 -0.000000 C
1.708333 0.500000 -0.000000 C
1.833333 0.875000 -0.000000 C
1.666667 0.625000 -0.000000 C
1.208333 0.500000 -0.000000 C
1.291667 0.500000 -0.000000 C
1.333333 0.875000 -0.000000 C
1.416667 0.875000 -0.000000 C
1.166667 0.875000 -0.000000 C
1.041667 0.500000 -0.000000 C
1.791667 0.750000 -0.000000 C
1.708333 0.750000 -0.000000 C
1.041667 0.750000 -0.000000 C
1.458333 0.750000 -0.000000 C
1.291667 0.750000 -0.000000 C
1.541667 0.750000 -0.000000 C
1.958333 0.750000 -0.000000 C
1.208333 0.750000 -0.000000 C
1.791667 1.000000 -0.000000 C
1.708333 1.000000 -0.000000 C
1.958333 1.000000 -0.000000 C
1.208333 1.000000 -0.000000 C
1.291667 1.000000 -0.000000 C
1.458333 1.000000 -0.000000 C
1.041667 1.000000 -0.000000 C
1.541667 1.000000 -0.000000 C
2.041667 0.000000 -0.000000 C
2.083333 0.375000 -0.000000 C
2.166667 0.375000 -0.000000 C
2.833333 0.375000 -0.000000 C
2.916667 0.375000 -0.000000 C
2.958333 0.000000 -0.000000 C
2.791667 0.250000 -0.000000 C
2.916667 0.625000 -0.000000 C
2.666667 0.375000 -0.000000 C
2.333333 0.625000 -0.000000 C
2.833333 0.125000 -0.000000 C
2.458333 0.250000 -0.000000 C
2.583333 0.375000 -0.000000 C
2.833333 0.625000 -0.000000 C
2.041667 0.250000 -0.000000 C
2.083333 0.625000 -0.000000 C
2.416667 0.375000 -0.000000 C
2.333333 0.375000 -0.000000 C
2.166667 0.625000 -0.000000 C
2.416667 0.625000 -0.000000 C
2.083333 0.125000 -0.000000 C
2.291667 0.250000 -0.000000 C
2.958333 0.250000 -0.000000 C
2.208333 0.250000 -0.000000 C
2.166667 0.125000 -0.000000 C
2.916667 0.125000 -0.000000 C
2.458333 0.500000 -0.000000 C
2.666667 0.875000 -0.000000 C
2.708333 0.250000 -0.000000 C
2.791667 0.500000 -0.000000 C
2.541667 0.500000 -0.000000 C
2.916667 0.875000 -0.000000 C
2.583333 0.875000 -0.000000 C
2.583333 0.625000 -0.000000 C
2.541667 0.250000 -0.000000 C
2.958333 0.500000 -0.000000 C
2.083333 0.875000 -0.000000 C
2.708333 0.500000 -0.000000 C
2.833333 0.875000 -0.000000 C
2.666667 0.625000 -0.000000 C
2.208333 0.500000 -0.000000 C
2.291667 0.500000 -0.000000 C
2.333333 0.875000 -0.000000 C
2.416667 0.875000 -0.000000 C
2.166667 0.875000 -0.000000 C
2.041667 0.500000 -0.000000 C
2.791667 0.750000 -0.000000 C
2.708333 0.750000 -0.000000 C
2.041667 0.750000 -0.000000 C
2.458333 0.750000 -0.000000 C
2.291667 0.750000 -0.000000 C
2.541667 0.750000 -0.000000 C
2.958333 0.750000 -0.000000 C
2.208333 0.750000 -0.000000 C
2.791667 1.000000 -0.000000 C
2.708333 1.000000 -0.000000 C
2.958333 1.000000 -0.000000 C
2.208333 1.000000 -0.000000 C
2.291667 1.000000 -0.000000 C
2.458333 1.000000 -0.000000 C
2.041667 1.000000 -0.000000 C
2.541667 1.000000 -0.000000 C
3.041667 0.500000 -0.000000 C
3.083333 0.875000 -0.000000 C
3.166667 0.875000 -0.000000 C
3.208333 0.500000 -0.000000 C
3.041667 1.000000 -0.000000 C
3.208333 1.000000 -0.000000 C
3.791667 1.000000 -0.000000 C
3.958333 1.000000 -0.000000 C
3.791667 0.500000 -0.000000 C
3.833333 0.875000 -0.000000 C
3.916667 0.875000 -0.000000 C
3.958333 0.500000 -0.000000 C
3.041667 0.250000 -0.000000 C
3.583333 1.125000 -0.000000 C
3.583333 0.875000 -0.000000 C
3.833333 0.625000 -0.000000 C
3.041667 0.750000 -0.000000 C
3.083333 0.625000 -0.000000 C
3.833333 1.125000 -0.000000 C
3.458333 1.000000 -0.000000 C
3.541667 0.750000 -0.000000 C
3.541667 0.500000 -0.000000 C
3.458333 1.250000 -0.000000 C
3.541667 1.000000 -0.000000 C
3.666667 1.125000 -0.000000 C
3.458333 0.500000 -0.000000 C
3.458333 0.750000 -0.000000 C
3.666667 0.875000 -0.000000 C
3.583333 0.625000 -0.000000 C
3.916667 0.625000 -0.000000 C
3.541667 0.250000 -0.000000 C
3.083333 1.125000 -0.000000 C
3.416667 1.125000 -0.000000 C
3.791667 0.250000 -0.000000 C
3.416667 0.875000 -0.000000 C
3.666667 0.625000 -0.000000 C
3.291667 0.500000 -0.000000 C
3.291667 0.750000 -0.000000 C
3.958333 0.750000 -0.000000 C
3.708333 1.000000 -0.000000 C
3.333333 0.875000 -0.000000 C
3.333333 1.125000 -0.000000 C
3.291667 1.000000 -0.000000 C
3.208333 0.750000 -0.000000 C
3.708333 0.250000 -0.000000 C
3.791667 0.750000 -0.000000 C
3.208333 0.250000 -0.000000 C
3.708333 0.750000 -0.000000 C
3.708333 0.500000 -0.000000 C
3.166667 1.125000 -0.000000 C
3.958333 0.250000 -0.000000 C
3.916667 1.125000 -0.000000 C
3.166667 0.625000 -0.000000 C
3.583333 0.375000 -0.000000 C
3.166667 0.375000 -0.000000 C
3.041667 0.000000 -0.000000 C
3.458333 0.000000 -0.000000 C
3.458333 0.250000 -0.000000 C
3.541667 0.000000 -0.000000 C
3.333333 0.375000 -0.000000 C
3.416667 0.625000 -0.000000 C
3.916667 0.375000 -0.000000 C
3.541667 1.250000 -0.000000 C
3.791667 0.000000 -0.000000 C
3.666667 0.375000 -0.000000 C
3.083333 0.375000 -0.000000 C
3.291667 0.250000 -0.000000 C
3.833333 0.375000 -0.000000 C
3.708333 0.000000 -0.000000 C
3.416667 0.375000 -0.000000 C
3.291667 0.000000 -0.000000 C
3.208333 0.000000 -0.000000 C
3.958333 0.000000 -0.000000 C
3.333333 0.625000 -0.000000 C
3.416667 0.125000 -0.000000 C
3.333333 0.125000 -0.000000 C
3.833333 0.125000 -0.000000 C
3.583333 0.125000 -0.000000 C
3.083333 0.125000 -0.000000 C
3.916667 0.125000 -0.000000 C
3.666667 0.125000 -0.000000 C
3.166667 0.125000 -0.000000 C
4.041667 0.500000 -0.000000 C
4.083333 0.875000 -0.000000 C
4.166667 0.875000 -0.000000 C
4.208333 0.500000 -0.000000 C
4.041667 1.000000 -0.000000 C
4.208333 1.000000 -0.000000 C
4.791667 1.000000 -0.000000 C
4.958333 1.000000 -0.000000 C
4.791667 0.500000 -0.000000 C
4.833333 0.875000 -0.000000 C
4.916667 0.875000 -0.000000 C
4.958333 0.500000 -0.000000 C
4.041667 0.250000 -0.000000 C
4.583333 1.125000 -0.000000 C
4.583333 0.875000 -0.000000 C
4.833333 0.625000 -0.000000 C
4.041667 0.750000 -0.000000 C
4.083333 0.625000 -0.000000 C
4.833333 1.125000 -0.000000 C
4.458333 1.000000 -0.000000 C
4.541667 0.750000 -0.000000 C
4.541667 0.500000 -0.000000 C
4.458333 1.250000 -0.000000 C
4.541667 1.000000 -0.000000 C
4.666667 1.125000 -0.000000 C
4.458333 0.500000 -0.000000 C
4.458333 0.750000 -0.000000 C
4.666667 0.875000 -0.000000 C
4.583333 0.625000 -0.000000 C
4.916667 0.625000 -0.000000 C
4.541667 0.250000 -0.000000 C
4.083333 1.125000 -0.000000 C
4.416667 1.125000 -0.000000 C
4.791667 0.250000 -0.000000 C
4.416667 0.875000 -0.000000 C
4.666667 0.625000 -0.000000 C
4.291667 0.500000 -0.000000 C
4.291667 0.750000 -0.000000 C
4.958333 0.750000 -0.000000 C
4.708333 1.000000 -0.000000 C
4.333333 0.875000 -0.000000 C
4.333333 1.125000 -0.000000 C
4.291667 1.000000 -0.000000 C
4.208333 0.750000 -0.000000 C
4.708333 0.250000 -0.000000 C
4.791667 0.750000 -0.000000 C
4.208333 0.250000 -0.000000 C
4.708333 0.750000 -0.000000 C
4.708333 0.500000 -0.000000 C
4.166667 1.125000 -0.000000 C
4.958333 0.250000 -0.000000 C
4.916667 1.125000 -0.000000 C
4.166667 0.625000 -0.000000 C
4.583333 0.375000 -0.000000 C
4.166667 0.375000 -0.000000 C
4.041667 0.000000 -0.000000 C
4.458333 0.000000 -0.000000 C
4.458333 0.250000 -0.000000 C
4.541667 0.000000 -0.000000 C
4.333333 0.375000 -0.000000 C
4.416667 0.625000 -0.000000 C
4.916667 0.375000 -0.000000 C
4.541667 1.250000 -0.000000 C
4.791667 0.000000 -0.000000 C
4.666667 0.375000 -0.000000 C
4.083333 0.375000 -0.000000 C
4.291667 0.250000 -0.000000 C
4.833333 0.375000 -0.000000 C
4.708333 0.000000 -0.000000 C
4.416667 0.375000 -0.000000 C
4.291667 0.000000 -0.000000 C
4.208333 0.000000 -0.000000 C
4.958333 0.000000 -0.000000 C
4.333333 0.625000 -0.000000 C
4.416667 0.125000 -0.000000 C
4.333333 0.125000 -0.000000 C
4.833333 0.125000 -0.000000 C
4.583333 0.125000 -0.000000 C
4.083333 0.125000 -0.000000 C
4.916667 0.125000 -0.000000 C
4.666667 0.125000 -0.000000 C
4.166667 0.125000 -0.000000 C
5.041667 0.500000 -0.000000 C
5.083333 0.875000 -0.000000 C
5.166667 0.875000 -0.000000 C
5.208333 0.500000 -0.000000 C
5.041667 1.000000 -0.000000 C
5.208333 1.000000 -0.000000 C
5.791667 1.000000 -0.000000 C
5.958333 1.000000 -0.000000 C
5.791667 0.500000 -0.000000 C
5.833333 0.875000 -0.000000 C
5.916667 0.875000 -0.000000 C
5.958333 0.500000 -0.000000 C
5.041667 0.250000 -0.000000 C
5.583333 1.125000 -0.000000 C
5.583333 0.875000 -0.000000 C
5.833333 0.625000 -0.000000 C
5.041667 0.750000 -0.000000 C
5.083333 0.625000 -0.000000 C
5.833333 1.125000 -0.000000 C
5.458333 1.000000 -0.000000 C
5.541667 0.750000 -0.000000 C
5.541667 0.500000 -0.000000 C
5.458333 1.250000 -0.000000 C
5.541667 1.000000 -0.000000 C
5.666667 1.125000 -0.000000 C
5.458333 0.500000 -0.000000 C
5.458333 0.750000 -0.000000 C
5.666667 0.875000 -0.000000 C
5.583333 0.625000 -0.000000 C
5.916667 0.625000 -0.000000 C
5.541667 0.250000 -0.000000 C
5.083333 1.125000 -0.000000 C
5.416667 1.125000 -0.000000 C
5.791667 0.250000 -0.000000 C
5.416667 0.875000 -0.000000 C
5.666667 0.625000 -0.000000 C
5.291667 0.500000 -0.000000 C
5.291667 0.750000 -0.000000 C
5.958333 0.750000 -0.000000 C
5.708333 1.000000 -0.000000 C
5.333333 0.875000 -0.000000 C
5.333333 1.125000 -0.000000 C
5.291667 1.000000 -0.000000 C
5.208333 0.750000 -0.000000 C
5.708333 0.250000 -0.000000 C
5.791667 0.750000 -0.000000 C
5.208333 0.250000 -0.000000 C
5.708333 0.750000 -0.000000 C
5.708333 0.500000 -0.000000 C
5.166667 1.125000 -0.000000 C
5.958333 0.250000 -0.000000 C
5.916667 1.125000 -0.000000 C
5.166667 0.625000 -0.000000 C
5.583333 0.375000 -0.000000 C
5.166667 0.375000 -0.000000 C
5.041667 0.000000 -0.000000 C
5.458333 0.000000 -0.000000 C
5.458333 0.250000 -0.000000 C
5.541667 0.000000 -0.000000 C
5.333333 0.375000 -0.000000 C
5.416667 0.625000 -0.000000 C
5.916667 0.375000 -0.000000 C
5.541667 1.250000 -0.000000 C
5.791667 0.000000 -0.000000 C
5.666667 0.375000 -0.000000 C
5.083333 0.375000 -0.000000 C
5.291667 0.250000 -0.000000 C
5.833333 0.375000 -0.000000 C
5.708333 0.000000 -0.000000 C
5.416667 0.375000 -0.000000 C
5.291667 0.000000 -0.000000 C
5.208333 0.000000 -0.000000 C
5.958333 0.000000 -0.000000 C
5.333333 0.625000 -0.000000 C
5.416667 0.125000 -0.000000 C
5.333333 0.125000 -0.000000 C
5.833333 0.125000 -0.000000 C
5.583333 0.125000 -0.000000 C
5.083333 0.125000 -0.000000 C
5.916667 0.125000 -0.000000 C
5.666667 0.125000 -0.000000 C
5.166667 0.125000 -0.000000 C
