C717
1.0
40.000000 0.000000 0.000000
-0.000000 2.309401 0.000000
0.000000 0.000000 5.000000
C
717
direct
0.008333 0.375000 -0.000000 C
0.016667 0.375000 -0.000000 C
0.083333 0.375000 -0.000000 C
0.091667 0.375000 -0.000000 C
0.095833 0.000000 -0.000000 C
0.091667 0.125000 -0.000000 C
0.016667 0.125000 -0.000000 C
0.091667 0.625000 -0.000000 C
0.008333 0.625000 -0.000000 C
0.033333 0.625000 -0.000000 C
0.016667 0.625000 -0.000000 C
0.095833 0.250000 -0.000000 C
0.029167 0.250000 -0.000000 C
0.041667 0.375000 -0.000000 C
0.083333 0.125000 -0.000000 C
0.033333 0.375000 -0.000000 C
0.020833 0.250000 -0.000000 C
0.008333 0.125000 -0.000000 C
0.041667 0.625000 -0.000000 C
0.083333 0.625000 -0.000000 C
0.058333 0.375000 -0.000000 C
0.045833 0.250000 -0.000000 C
0.066667 0.375000 -0.000000 C
0.004167 0.250000 -0.000000 C
0.079167 0.250000 -0.000000 C
0.091667 0.875000 -0.000000 C
0.004167 0.500000 -0.000000 C
0.070833 0.500000 -0.000000 C
0.079167 0.500000 -0.000000 C
0.045833 0.500000 -0.000000 C
0.016667 0.875000 -0.000000 C
0.054167 0.500000 -0.000000 C
0.020833 0.500000 -0.000000 C
0.054167 0.250000 -0.000000 C
0.029167 0.500000 -0.000000 C
0.070833 0.250000 -0.000000 C
0.083333 0.875000 -0.000000 C
0.033333 0.875000 -0.000000 C
0.008333 0.875000 -0.000000 C
0.066667 0.625000 -0.000000 C
0.041667 0.875000 -0.000000 C
0.095833 0.500000 -0.000000 C
0.058333 0.625000 -0.000000 C
0.058333 0.875000 -0.000000 C
0.066667 0.875000 -0.000000 C
0.095833 0.750000 -0.000000 C
0.045833 0.750000 -0.000000 C
0.004167 0.750000 -0.000000 C
0.079167 0.750000 -0.000000 C
0.029167 0.750000 -0.000000 C
0.020833 0.750000 -0.000000 C
0.070833 0.750000 -0.000000 C
0.054167 0.750000 -0.000000 C
0.079167 1.000000 -0.000000 C
0.054167 1.000000 -0.000000 C
0.070833 1.000000 -0.000000 C
0.029167 1.000000 -0.000000 C
0.020833 1.000000 -0.000000 C
0.095833 1.000000 -0.000000 C
0.045833 1.000000 -0.000000 C
0.104167 0.000000 -0.000000 C
0.108333 0.375000 -0.000000 C
0.116667 0.375000 -0.000000 C
0.183333 0.375000 -0.000000 C
0.191667 0.375000 -0.000000 C
0.195833 0.000000 -0.000000 C
0.191667 0.125000 -0.000000 C
0.116667 0.125000 -0.000000 C
0.191667 0.625000 -0.000000 C
0.108333 0.625000 -0.000000 C
0.133333 0.625000 -0.000000 C
0.116667 0.625000 -0.000000 C
0.195833 0.250000 -0.000000 C
0.129167 0.250000 -0.000000 C
0.141667 0.375000 -0.000000 C
0.183333 0.125000 -0.000000 C
0.133333 0.375000 -0.000000 C
0.120833 0.250000 -0.000000 C
0.108333 0.125000 -0.000000 C
0.141667 0.625000 -0.000000 C
0.183333 0.625000 -0.000000 C
0.158333 0.375000 -0.000000 C
0.145833 0.250000 -0.000000 C
0.166667 0.375000 -0.000000 C
0.104167 0.250000 -0.000000 C
0.179167 0.250000 -0.000000 C
0.191667 0.875000 -0.000000 C
0.104167 0.500000 -0.000000 C
0.170833 0.500000 -0.000000 C
0.179167 0.500000 -0.000000 C
0.145833 0.500000 -0.000000 C
0.116667 0.875000 -0.000000 C
0.154167 0.500000 -0.000000 C
0.120833 0.500000 -0.000000 C
0.154167 0.250000 -0.000000 C
0.129167 0.500000 -0.000000 C
0.170833 0.250000 -0.000000 C
0.183333 0.875000 -0.000000 C
0.133333 0.875000 -0.000000 C
0.108333 0.875000 -0.000000 C
0.166667 0.625000 -0.000000 C
0.141667 0.875000 -0.000000 C
0.195833 0.500000 -0.000000 C
0.158333 0.625000 -0.000000 C
0.158333 0.875000 -0.000000 C
0.166667 0.875000 -0.000000 C
0.195833 0.750000 -0.000000 C
0.145833 0.750000 -0.000000 C
0.104167 0.750000 -0.000000 C
0.179167 0.750000 -0.000000 C
0.129167 0.750000 -0.000000 C
0.120833 0.750000 -0.000000 C
0.170833 0.750000 -0.000000 C
0.154167 0.750000 -0.000000 C
0.179167 1.000000 -0.000000 C
0.154167 1.000000 -0.000000 C
0.170833 1.000000 -0.000000 C
0.129167 1.000000 -0.000000 C
0.120833 1.000000 -0.000000 C
0.195833 1.000000 -0.000000 C
0.145833 1.000000 -0.000000 C
0.104167 1.000000 -0.000000 C
0.204167 0.000000 -0.000000 C
0.208333 0.375000 -0.000000 C
0.216667 0.375000 -0.000000 C
0.283333 0.375000 -0.000000 C
0.291667 0.375000 -0.000000 C
0.295833 0.000000 -0.000000 C
0.291667 0.125000 -0.000000 C
0.216667 0.125000 -0.000000 C
0.291667 0.625000 -0.000000 C
0.208333 0.625000 -0.000000 C
0.233333 0.625000 -0.000000 C
0.216667 0.625000 -0.000000 C
0.295833 0.250000 -0.000000 C
0.229167 0.250000 -0.000000 C
0.241667 0.375000 -0.000000 C
0.283333 0.125000 -0.000000 C
0.233333 0.375000 -0.000000 C
0.220833 0.250000 -0.000000 C
0.208333 0.125000 -0.000000 C
0.241667 0.625000 -0.000000 C
0.283333 0.625000 -0.000000 C
0.258333 0.375000 -0.000000 C
0.245833 0.250000 -0.000000 C
0.266667 0.375000 -0.000000 C
0.204167 0.250000 -0.000000 C
0.279167 0.250000 -0.000000 C
0.291667 0.875000 -0.000000 C
0.204167 0.500000 -0.000000 C
0.270833 0.500000 -0.000000 C
0.279167 0.500000 -0.000000 C
0.245833 0.500000 -0.000000 C
0.216667 0.875000 -0.000000 C
0.254167 0.500000 -0.000000 C
0.220833 0.500000 -0.000000 C
0.254167 0.250000 -0.000000 C
0.229167 0.500000 -0.000000 C
0.270833 0.250000 -0.000000 C
0.283333 0.875000 -0.000000 C
0.233333 0.875000 -0.000000 C
0.208333 0.875000 -0.000000 C
0.266667 0.625000 -0.000000 C
0.241667 0.875000 -0.000000 C
0.295833 0.500000 -0.000000 C
0.258333 0.625000 -0.000000 C
0.258333 0.875000 -0.000000 C
0.266667 0.875000 -0.000000 C
0.295833 0.750000 -0.000000 C
0.245833 0.750000 -0.000000 C
0.204167 0.750000 -0.000000 C
0.279167 0.750000 -0.000000 C
0.229167 0.750000 -0.000000 C
0.220833 0.750000 -0.000000 C
0.270833 0.750000 -0.000000 C
0.254167 0.750000 -0.000000 C
0.279167 1.000000 -0.000000 C
0.254167 1.000000 -0.000000 C
0.270833 1.000000 -0.000000 C
0.229167 1.000000 -0.000000 C
0.220833 1.000000 -0.000000 C
0.295833 1.000000 -0.000000 C
0.245833 1.000000 -0.000000 C
0.204167 1.000000 -0.000000 C
0.304167 0.000000 -0.000000 C
0.308333 0.375000 -0.000000 C
0.316667 0.375000 -0.000000 C
0.383333 0.375000 -0.000000 C
0.391667 0.375000 -0.000000 C
0.395833 0.000000 -0.000000 C
0.391667 0.125000 -0.000000 C
0.316667 0.125000 -0.000000 C
0.391667 0.625000 -0.000000 C
0.308333 0.625000 -0.000000 C
0.333333 0.625000 -0.000000 C
0.316667 0.625000 -0.000000 C
0.395833 0.250000 -0.000000 C
0.329167 0.250000 -0.000000 C
0.341667 0.375000 -0.000000 C
0.383333 0.125000 -0.000000 C
0.333333 0.375000 -0.000000 C
0.320833 0.250000 -0.000000 C
0.308333 0.125000 -0.000000 C
0.341667 0.625000 -0.000000 C
0.383333 0.625000 -0.000000 C
0.358333 0.375000 -0.000000 C
0.345833 0.250000 -0.000000 C
0.366667 0.375000 -0.000000 C
0.304167 0.250000 -0.000000 C
0.379167 0.250000 -0.000000 C
0.391667 0.875000 -0.000000 C
0.304167 0.500000 -0.000000 C
0.370833 0.500000 -0.000000 C
0.379167 0.500000 -0.000000 C
0.345833 0.500000 -0.000000 C
0.316667 0.875000 -0.000000 C
0.354167 0.500000 -0.000000 C
0.320833 0.500000 -0.000000 C
0.354167 0.250000 -0.000000 C
0.329167 0.500000 -0.000000 C
0.370833 0.250000 -0.000000 C
0.383333 0.875000 -0.000000 C
0.333333 0.875000 -0.000000 C
0.308333 0.875000 -0.000000 C
0.366667 0.625000 -0.000000 C
0.341667 0.875000 -0.000000 C
0.395833 0.500000 -0.000000 C
0.358333 0.625000 -0.000000 C
0.358333 0.875000 -0.000000 C
0.366667 0.875000 -0.000000 C
0.395833 0.750000 -0.000000 C
0.345833 0.750000 -0.000000 C
0.304167 0.750000 -0.000000 C
0.379167 0.750000 -0.000000 C
0.329167 0.750000 -0.000000 C
0.320833 0.750000 -0.000000 C
0.370833 0.750000 -0.000000 C
0.354167 0.750000 -0.000000 C
0.379167 1.000000 -0.000000 C
0.354167 1.000000 -0.000000 C
0.370833 1.000000 -0.000000 C
0.329167 1.000000 -0.000000 C
0.320833 1.000000 -0.000000 C
0.395833 1.000000 -0.000000 C
0.345833 1.000000 -0.000000 C
0.304167 1.000000 -0.000000 C
0.404167 0.000000 -0.000000 C
0.408333 0.375000 -0.000000 C
0.416667 0.375000 -0.000000 C
0.483333 0.375000 -0.000000 C
0.491667 0.375000 -0.000000 C
0.495833 0.000000 -0.000000 C
0.491667 0.125000 -0.000000 C
0.416667 0.125000 -0.000000 C
0.491667 0.625000 -0.000000 C
0.408333 0.625000 -0.000000 C
0.433333 0.625000 -0.000000 C
0.416667 0.625000 -0.000000 C
0.495833 0.250000 -0.000000 C
0.429167 0.250000 -0.000000 C
0.441667 0.375000 -0.000000 C
0.483333 0.125000 -0.000000 C
0.433333 0.375000 -0.000000 C
0.420833 0.250000 -0.000000 C
0.408333 0.125000 -0.000000 C
0.441667 0.625000 -0.000000 C
0.483333 0.625000 -0.000000 C
0.458333 0.375000 -0.000000 C
0.445833 0.250000 -0.000000 C
0.466667 0.375000 -0.000000 C
0.404167 0.250000 -0.000000 C
0.479167 0.250000 -0.000000 C
0.491667 0.875000 -0.000000 C
0.404167 0.500000 -0.000000 C
0.470833 0.500000 -0.000000 C
0.479167 0.500000 -0.000000 C
0.445833 0.500000 -0.000000 C
0.416667 0.875000 -0.000000 C
0.454167 0.500000 -0.000000 C
0.420833 0.500000 -0.000000 C
0.454167 0.250000 -0.000000 C
0.429167 0.500000 -0.000000 C
0.470833 0.250000 -0.000000 C
0.483333 0.875000 -0.000000 C
0.433333 0.875000 -0.000000 C
0.408333 0.875000 -0.000000 C
0.466667 0.625000 -0.000000 C
0.441667 0.875000 -0.000000 C
0.495833 0.500000 -0.000000 C
0.458333 0.625000 -0.000000 C
0.458333 0.875000 -0.000000 C
0.466667 0.875000 -0.000000 C
0.495833 0.750000 -0.000000 C
0.445833 0.750000 -0.000000 C
0.404167 0.750000 -0.000000 C
0.479167 0.750000 -0.000000 C
0.429167 0.750000 -0.000000 C
0.420833 0.750000 -0.000000 C
0.470833 0.750000 -0.000000 C
0.454167 0.750000 -0.000000 C
0.479167 1.000000 -0.000000 C
0.454167 1.000000 -0.000000 C
0.470833 1.000000 -0.000000 C
0.429167 1.000000 -0.000000 C
0.420833 1.000000 -0.000000 C
0.495833 1.000000 -0.000000 C
0.445833 1.000000 -0.000000 C
0.404167 1.000000 -0.000000 C
0.504167 0.000000 -0.000000 C
0.508333 0.375000 -0.000000 C
0.516667 0.375000 -0.000000 C
0.520833 0.000000 -0.000000 C
0.579167 0.000000 -0.000000 C
0.583333 0.375000 -0.000000 C
0.591667 0.375000 -0.000000 C
0.595833 0.000000 -0.000000 C
0.591667 0.125000 -0.000000 C
0.516667 0.125000 -0.000000 C
0.591667 0.625000 -0.000000 C
0.508333 0.625000 -0.000000 C
0.570833 0.000000 -0.000000 C
0.533333 0.625000 -0.000000 C
0.516667 0.625000 -0.000000 C
0.554167 0.000000 -0.000000 C
0.545833 0.000000 -0.000000 C
0.566667 0.125000 -0.000000 C
0.558333 0.125000 -0.000000 C
0.595833 0.250000 -0.000000 C
0.529167 0.250000 -0.000000 C
0.541667 0.375000 -0.000000 C
0.529167 0.000000 -0.000000 C
0.583333 0.125000 -0.000000 C
0.533333 0.375000 -0.000000 C
0.520833 0.250000 -0.000000 C
0.508333 0.125000 -0.000000 C
0.541667 0.625000 -0.000000 C
0.583333 0.625000 -0.000000 C
0.558333 0.375000 -0.000000 C
0.545833 0.250000 -0.000000 C
0.566667 0.375000 -0.000000 C
0.504167 0.250000 -0.000000 C
0.579167 0.250000 -0.000000 C
0.591667 0.875000 -0.000000 C
0.504167 0.500000 -0.000000 C
0.570833 0.500000 -0.000000 C
0.579167 0.500000 -0.000000 C
0.545833 0.500000 -0.000000 C
0.516667 0.875000 -0.000000 C
0.554167 0.500000 -0.000000 C
0.520833 0.500000 -0.000000 C
0.554167 0.250000 -0.000000 C
0.529167 0.500000 -0.000000 C
0.570833 0.250000 -0.000000 C
0.583333 0.875000 -0.000000 C
0.541667 0.125000 -0.000000 C
0.533333 0.875000 -0.000000 C
0.508333 0.875000 -0.000000 C
0.533333 0.125000 -0.000000 C
0.566667 0.625000 -0.000000 C
0.541667 0.875000 -0.000000 C
0.595833 0.500000 -0.000000 C
0.558333 0.625000 -0.000000 C
0.558333 0.875000 -0.000000 C
0.566667 0.875000 -0.000000 C
0.566667 1.125000 -0.000000 C
0.595833 0.750000 -0.000000 C
0.583333 1.125000 -0.000000 C
0.516667 1.125000 -0.000000 C
0.545833 0.750000 -0.000000 C
0.504167 0.750000 -0.000000 C
0.579167 0.750000 -0.000000 C
0.591667 1.125000 -0.000000 C
0.508333 1.125000 -0.000000 C
0.529167 0.750000 -0.000000 C
0.533333 1.125000 -0.000000 C
0.570833 0.750000 -0.000000 C
0.520833 0.750000 -0.000000 C
0.558333 1.125000 -0.000000 C
0.554167 0.750000 -0.000000 C
0.541667 1.125000 -0.000000 C
0.579167 1.000000 -0.000000 C
0.554167 1.000000 -0.000000 C
0.570833 1.000000 -0.000000 C
0.529167 1.000000 -0.000000 C
0.520833 1.000000 -0.000000 C
0.595833 1.000000 -0.000000 C
0.545833 1.000000 -0.000000 C
0.504167 1.000000 -0.000000 C
0.545833 1.250000 -0.000000 C
0.554167 1.250000 -0.000000 C
0.604167 0.000000 -0.000000 C
0.608333 0.375000 -0.000000 C
0.616667 0.375000 -0.000000 C
0.620833 0.000000 -0.000000 C
0.679167 0.000000 -0.000000 C
0.683333 0.375000 -0.000000 C
0.691667 0.375000 -0.000000 C
0.695833 0.000000 -0.000000 C
0.691667 0.125000 -0.000000 C
0.616667 0.125000 -0.000000 C
0.691667 0.625000 -0.000000 C
0.608333 0.625000 -0.000000 C
0.670833 0.000000 -0.000000 C
0.633333 0.625000 -0.000000 C
0.616667 0.625000 -0.000000 C
0.654167 0.000000 -0.000000 C
0.645833 0.000000 -0.000000 C
0.666667 0.125000 -0.000000 C
0.658333 0.125000 -0.000000 C
0.695833 0.250000 -0.000000 C
0.629167 0.250000 -0.000000 C
0.641667 0.375000 -0.000000 C
0.629167 0.000000 -0.000000 C
0.683333 0.125000 -0.000000 C
0.633333 0.375000 -0.000000 C
0.620833 0.250000 -0.000000 C
0.608333 0.125000 -0.000000 C
0.641667 0.625000 -0.000000 C
0.683333 0.625000 -0.000000 C
0.658333 0.375000 -0.000000 C
0.645833 0.250000 -0.000000 C
0.666667 0.375000 -0.000000 C
0.604167 0.250000 -0.000000 C
0.679167 0.250000 -0.000000 C
0.691667 0.875000 -0.000000 C
0.604167 0.500000 -0.000000 C
0.670833 0.500000 -0.000000 C
0.679167 0.500000 -0.000000 C
0.645833 0.500000 -0.000000 C
0.616667 0.875000 -0.000000 C
0.654167 0.500000 -0.000000 C
0.620833 0.500000 -0.000000 C
0.654167 0.250000 -0.000000 C
0.629167 0.500000 -0.000000 C
0.670833 0.250000 -0.000000 C
0.683333 0.875000 -0.000000 C
0.641667 0.125000 -0.000000 C
0.633333 0.875000 -0.000000 C
0.608333 0.875000 -0.000000 C
0.633333 0.125000 -0.000000 C
0.666667 0.625000 -0.000000 C
0.641667 0.875000 -0.000000 C
0.695833 0.500000 -0.000000 C
0.658333 0.625000 -0.000000 C
0.658333 0.875000 -0.000000 C
0.666667 0.875000 -0.000000 C
0.666667 1.125000 -0.000000 C
0.695833 0.750000 -0.000000 C
0.683333 1.125000 -0.000000 C
0.616667 1.125000 -0.000000 C
0.645833 0.750000 -0.000000 C
0.604167 0.750000 -0.000000 C
0.679167 0.750000 -0.000000 C
0.691667 1.125000 -0.000000 C
0.608333 1.125000 -0.000000 C
0.629167 0.750000 -0.000000 C
0.633333 1.125000 -0.000000 C
0.670833 0.750000 -0.000000 C
0.620833 0.750000 -0.000000 C
0.658333 1.125000 -0.000000 C
0.654167 0.750000 -0.000000 C
0.641667 1.125000 -0.000000 C
0.679167 1.000000 -0.000000 C
0.654167 1.000000 -0.000000 C
0.670833 1.000000 -0.000000 C
0.629167 1.000000 -0.000000 C
0.620833 1.000000 -0.000000 C
0.695833 1.000000 -0.000000 C
0.645833 1.000000 -0.000000 C
0.604167 1.000000 -0.000000 C
0.645833 1.250000 -0.000000 C
0.654167 1.250000 -0.000000 C
0.704167 0.000000 -0.000000 C
0.708333 0.375000 -0.000000 C
0.716667 0.375000 -0.000000 C
0.720833 0.000000 -0.000000 C
0.779167 0.000000 -0.000000 C
0.783333 0.375000 -0.000000 C
0.791667 0.375000 -0.000000 C
0.795833 0.000000 -0.000000 C
0.791667 0.125000 -0.000000 C
0.716667 0.125000 -0.000000 C
0.791667 0.625000 -0.000000 C
0.708333 0.625000 -0.000000 C
0.770833 0.000000 -0.000000 C
0.733333 0.625000 -0.000000 C
0.716667 0.625000 -0.000000 C
0.754167 0.000000 -0.000000 C
0.745833 0.000000 -0.000000 C
0.766667 0.125000 -0.000000 C
0.758333 0.125000 -0.000000 C
0.795833 0.250000 -0.000000 C
0.729167 0.250000 -0.000000 C
0.741667 0.375000 -0.000000 C
0.729167 0.000000 -0.000000 C
0.783333 0.125000 -0.000000 C
0.733333 0.375000 -0.000000 C
0.720833 0.250000 -0.000000 C
0.708333 0.125000 -0.000000 C
0.741667 0.625000 -0.000000 C
0.783333 0.625000 -0.000000 C
0.758333 0.375000 -0.000000 C
0.745833 0.250000 -0.000000 C
0.766667 0.375000 -0.000000 C
0.704167 0.250000 -0.000000 C
0.779167 0.250000 -0.000000 C
0.791667 0.875000 -0.000000 C
0.704167 0.500000 -0.000000 C
0.770833 0.500000 -0.000000 C
0.779167 0.500000 -0.000000 C
0.745833 0.500000 -0.000000 C
0.716667 0.875000 -0.000000 C
0.754167 0.500000 -0.000000 C
0.720833 0.500000 -0.000000 C
0.754167 0.250000 -0.000000 C
0.729167 0.500000 -0.000000 C
0.770833 0.250000 -0.000000 C
0.783333 0.875000 -0.000000 C
0.741667 0.125000 -0.000000 C
0.733333 0.875000 -0.000000 C
0.708333 0.875000 -0.000000 C
0.733333 0.125000 -0.000000 C
0.766667 0.625000 -0.000000 C
0.741667 0.875000 -0.000000 C
0.795833 0.500000 -0.000000 C
0.758333 0.625000 -0.000000 C
0.758333 0.875000 -0.000000 C
0.766667 0.875000 -0.000000 C
0.766667 1.125000 -0.000000 C
0.795833 0.750000 -0.000000 C
0.783333 1.125000 -0.000000 C
0.716667 1.125000 -0.000000 C
0.745833 0.750000 -0.000000 C
0.704167 0.750000 -0.000000 C
0.779167 0.750000 -0.000000 C
0.791667 1.125000 -0.000000 C
0.708333 1.125000 -0.000000 C
0.729167 0.750000 -0.000000 C
0.733333 1.125000 -0.000000 C
0.770833 0.750000 -0.000000 C
0.720833 0.750000 -0.000000 C
0.758333 1.125000 -0.000000 C
0.754167 0.750000 -0.000000 C
0.741667 1.125000 -0.000000 C
0.779167 1.000000 -0.000000 C
0.754167 1.000000 -0.000000 C
0.770833 1.000000 -0.000000 C
0.729167 1.000000 -0.000000 C
0.720833 1.000000 -0.000000 C
0.795833 1.000000 -0.000000 C
0.745833 1.000000 -0.000000 C
0.704167 1.000000 -0.000000 C
0.745833 1.250000 -0.000000 C
0.754167 1.250000 -0.000000 C
0.804167 0.000000 -0.000000 C
0.808333 0.375000 -0.000000 C
0.816667 0.375000 -0.000000 C
0.820833 0.000000 -0.000000 C
0.879167 0.000000 -0.000000 C
0.883333 0.375000 -0.000000 C
0.891667 0.375000 -0.000000 C
0.895833 0.000000 -0.000000 C
0.891667 0.125000 -0.000000 C
0.816667 0.125000 -0.000000 C
0.891667 0.625000 -0.000000 C
0.808333 0.625000 -0.000000 C
0.870833 0.000000 -0.000000 C
0.833333 0.625000 -0.000000 C
0.816667 0.625000 -0.000000 C
0.854167 0.000000 -0.000000 C
0.845833 0.000000 -0.000000 C
0.866667 0.125000 -0.000000 C
0.858333 0.125000 -0.000000 C
0.895833 0.250000 -0.000000 C
0.829167 0.250000 -0.000000 C
0.841667 0.375000 -0.000000 C
0.829167 0.000000 -0.000000 C
0.883333 0.125000 -0.000000 C
0.833333 0.375000 -0.000000 C
0.820833 0.250000 -0.000000 C
0.808333 0.125000 -0.000000 C
0.841667 0.625000 -0.000000 C
0.883333 0.625000 -0.000000 C
0.858333 0.375000 -0.000000 C
0.845833 0.250000 -0.000000 C
0.866667 0.375000 -0.000000 C
0.804167 0.250000 -0.000000 C
0.879167 0.250000 -0.000000 C
0.891667 0.875000 -0.000000 C
0.804167 0.500000 -0.000000 C
0.870833 0.500000 -0.000000 C
0.879167 0.500000 -0.000000 C
0.845833 0.500000 -0.000000 C
0.816667 0.875000 -0.000000 C
0.854167 0.500000 -0.000000 C
0.820833 0.500000 -0.000000 C
0.854167 0.250000 -0.000000 C
0.829167 0.500000 -0.000000 C
0.870833 0.250000 -0.000000 C
0.883333 0.875000 -0.000000 C
0.841667 0.125000 -0.000000 C
0.833333 0.875000 -0.000000 C
0.808333 0.875000 -0.000000 C
0.833333 0.125000 -0.000000 C
0.866667 0.625000 -0.000000 C
0.841667 0.875000 -0.000000 C
0.895833 0.500000 -0.000000 C
0.858333 0.625000 -0.000000 C
0.858333 0.875000 -0.000000 C
0.866667 0.875000 -0.000000 C
0.866667 1.125000 -0.000000 C
0.895833 0.750000 -0.000000 C
0.883333 1.125000 -0.000000 C
0.816667 1.125000 -0.000000 C
0.845833 0.750000 -0.000000 C
0.804167 0.750000 -0.000000 C
0.879167 0.750000 -0.000000 C
0.891667 1.125000 -0.000000 C
0.808333 1.125000 -0.000000 C
0.829167 0.750000 -0.000000 C
0.833333 1.125000 -0.000000 C
0.870833 0.750000 -0.000000 C
0.820833 0.750000 -0.000000 C
0.858333 1.125000 -0.000000 C
0.854167 0.750000 -0.000000 C
0.841667 1.125000 -0.000000 C
0.879167 1.000000 -0.000000 C
0.854167 1.000000 -0.000000 C
0.870833 1.000000 -0.000000 C
0.829167 1.000000 -0.000000 C
0.820833 1.000000 -0.000000 C
0.895833 1.000000 -0.000000 C
0.845833 1.000000 -0.000000 C
0.804167 1.000000 -0.000000 C
0.845833 1.250000 -0.000000 C
0.854167 1.250000 -0.000000 C
0.904167 0.000000 -0.000000 C
0.908333 0.375000 -0.000000 C
0.916667 0.375000 -0.000000 C
0.920833 0.000000 -0.000000 C
0.979167 0.000000 -0.000000 C
0.983333 0.375000 -0.000000 C
0.991667 0.375000 -0.000000 C
0.991667 0.125000 -0.000000 C
0.916667 0.125000 -0.000000 C
0.991667 0.625000 -0.000000 C
0.908333 0.625000 -0.000000 C
0.970833 0.000000 -0.000000 C
0.933333 0.625000 -0.000000 C
0.916667 0.625000 -0.000000 C
0.954167 0.000000 -0.000000 C
0.945833 0.000000 -0.000000 C
0.966667 0.125000 -0.000000 C
0.958333 0.125000 -0.000000 C
0.995833 0.250000 -0.000000 C
0.929167 0.250000 -0.000000 C
0.941667 0.375000 -0.000000 C
0.929167 0.000000 -0.000000 C
0.983333 0.125000 -0.000000 C
0.933333 0.375000 -0.000000 C
0.920833 0.250000 -0.000000 C
0.908333 0.125000 -0.000000 C
0.941667 0.625000 -0.000000 C
0.983333 0.625000 -0.000000 C
0.958333 0.375000 -0.000000 C
0.945833 0.250000 -0.000000 C
0.966667 0.375000 -0.000000 C
0.904167 0.250000 -0.000000 C
0.979167 0.250000 -0.000000 C
0.991667 0.875000 -0.000000 C
0.904167 0.500000 -0.000000 C
0.970833 0.500000 -0.000000 C
0.979167 0.500000 -0.000000 C
0.945833 0.500000 -0.000000 C
0.916667 0.875000 -0.000000 C
0.954167 0.500000 -0.000000 C
0.920833 0.500000 -0.000000 C
0.954167 0.250000 -0.000000 C
0.929167 0.500000 -0.000000 C
0.970833 0.250000 -0.000000 C
0.983333 0.875000 -0.000000 C
0.941667 0.125000 -0.000000 C
0.933333 0.875000 -0.000000 C
0.908333 0.875000 -0.000000 C
0.933333 0.125000 -0.000000 C
0.966667 0.625000 -0.000000 C
0.941667 0.875000 -0.000000 C
0.995833 0.500000 -0.000000 C
0.958333 0.625000 -0.000000 C
0.958333 0.875000 -0.000000 C
0.966667 0.875000 -0.000000 C
0.966667 1.125000 -0.000000 C
0.995833 0.750000 -0.000000 C
0.983333 1.125000 -0.000000 C
0.916667 1.125000 -0.000000 C
0.945833 0.750000 -0.000000 C
0.904167 0.750000 -0.000000 C
0.979167 0.750000 -0.000000 C
0.991667 1.125000 -0.000000 C
0.908333 1.125000 -0.000000 C
0.929167 0.750000 -0.000000 C
0.933333 1.125000 -0.000000 C
0.970833 0.750000 -0.000000 C
0.920833 0.750000 -0.000000 C
0.958333 1.125000 -0.000000 C
0.954167 0.750000 -0.000000 C
0.941667 1.125000 -0.000000 C
0.979167 1.000000 -0.000000 C
0.954167 1.000000 -0.000000 C
0.970833 1.000000 -0.000000 C
0.929167 1.000000 -0.000000 C
0.920833 1.000000 -0.000000 C
0.995833 1.000000 -0.000000 C
0.945833 1.000000 -0.000000 C
0.904167 1.000000 -0.000000 C
0.945833 1.250000 -0.000000 C
0.954167 1.250000 -0.000000 C
