POSCAR file written by OVITO
1
1.732051 0.0 0.0
0.0 16.0 0.0
0.0 0.0 5.0
C 
24 
Cartesian
1.732051 0.833328 0.0
0.8660256 1.666672 0.0
0.8660256 1.333328 0.0
0.5773497 0.833328 0.0
1.4433754 1.333328 0.0
1.732051 1.166672 0.0
1.4433754 1.666672 0.0
0.5773497 1.833328 0.0
1.732051 1.833328 0.0
0.5773497 1.166672 0.0
0.2886758 0.666672 0.0
0.2886758 1.666672 0.0
1.4433754 2.666672 0.0
1.4433754 2.333328 0.0
0.8660256 2.333328 0.0
1.1547012 1.833328 0.0
0.2886758 1.333328 0.0
1.1547012 1.166672 0.0
0.5773497 2.166672 0.0
1.732051 2.833328 0.0
1.1547012 2.166672 0.0
1.732051 2.166672 0.0
0.2886758 2.333328 0.0
0.2886758 2.666672 0.0
