C102
1.0
6.000000 0.000000 0.000000
-0.000000 6.000000 0.000000
0.000000 0.000000 5.000000
C
102
direct
0.055556 0.144338 -0.000000 C
0.111111 0.144338 -0.000000 C
0.888889 0.144338 -0.000000 C
0.944444 0.144338 -0.000000 C
0.222222 0.144338 -0.000000 C
0.944444 0.240563 -0.000000 C
0.222222 0.240563 -0.000000 C
0.277778 0.240563 -0.000000 C
0.111111 0.240563 -0.000000 C
0.888889 0.240563 -0.000000 C
0.277778 0.144338 -0.000000 C
0.027778 0.096225 -0.000000 C
0.777778 0.144338 -0.000000 C
0.972222 0.096225 -0.000000 C
0.722222 0.144338 -0.000000 C
0.055556 0.240563 -0.000000 C
0.472222 0.192450 -0.000000 C
0.027778 0.192450 -0.000000 C
0.444444 0.240563 -0.000000 C
0.305556 0.192450 -0.000000 C
0.972222 0.192450 -0.000000 C
0.361111 0.192450 -0.000000 C
0.222222 0.336788 -0.000000 C
0.888889 0.336788 -0.000000 C
0.777778 0.240563 -0.000000 C
0.444444 0.336788 -0.000000 C
0.055556 0.336788 -0.000000 C
0.111111 0.336788 -0.000000 C
0.277778 0.336788 -0.000000 C
0.388889 0.336788 -0.000000 C
0.194444 0.192450 -0.000000 C
0.861111 0.192450 -0.000000 C
0.138889 0.192450 -0.000000 C
0.722222 0.240563 -0.000000 C
0.944444 0.336788 -0.000000 C
0.388889 0.240563 -0.000000 C
0.027778 0.288675 -0.000000 C
0.805556 0.192450 -0.000000 C
0.527778 0.192450 -0.000000 C
0.527778 0.288675 -0.000000 C
0.138889 0.288675 -0.000000 C
0.694444 0.192450 -0.000000 C
0.361111 0.288675 -0.000000 C
0.222222 0.433013 -0.000000 C
0.638889 0.192450 -0.000000 C
0.888889 0.433013 -0.000000 C
0.555556 0.240563 -0.000000 C
0.611111 0.336788 -0.000000 C
0.055556 0.433013 -0.000000 C
0.777778 0.336788 -0.000000 C
0.472222 0.288675 -0.000000 C
0.305556 0.288675 -0.000000 C
0.555556 0.336788 -0.000000 C
0.972222 0.288675 -0.000000 C
0.611111 0.240563 -0.000000 C
0.277778 0.433013 -0.000000 C
0.722222 0.336788 -0.000000 C
0.111111 0.433013 -0.000000 C
0.194444 0.288675 -0.000000 C
0.861111 0.288675 -0.000000 C
0.638889 0.288675 -0.000000 C
0.944444 0.433013 -0.000000 C
0.194444 0.384900 -0.000000 C
0.138889 0.384900 -0.000000 C
0.722222 0.433013 -0.000000 C
0.361111 0.384900 -0.000000 C
0.861111 0.384900 -0.000000 C
0.638889 0.384900 -0.000000 C
0.805556 0.384900 -0.000000 C
0.305556 0.384900 -0.000000 C
0.777778 0.433013 -0.000000 C
0.972222 0.384900 -0.000000 C
0.027778 0.384900 -0.000000 C
0.694444 0.384900 -0.000000 C
0.694444 0.288675 -0.000000 C
0.805556 0.288675 -0.000000 C
0.527778 0.384900 -0.000000 C
0.472222 0.384900 -0.000000 C
0.027778 0.481125 -0.000000 C
0.138889 0.481125 -0.000000 C
0.861111 0.481125 -0.000000 C
0.805556 0.481125 -0.000000 C
0.194444 0.481125 -0.000000 C
0.972222 0.481125 -0.000000 C
0.111111 0.529238 -0.000000 C
0.888889 0.529238 -0.000000 C
0.055556 0.529238 -0.000000 C
0.944444 0.529238 -0.000000 C
0.972222 0.577350 -0.000000 C
0.027778 0.577350 -0.000000 C
0.805556 0.096225 -0.000000 C
0.194444 0.096225 -0.000000 C
0.861111 0.096225 -0.000000 C
0.138889 0.096225 -0.000000 C
0.388889 0.144338 -0.000000 C
0.611111 0.144338 -0.000000 C
0.444444 0.144338 -0.000000 C
0.555556 0.144338 -0.000000 C
0.694444 0.096225 -0.000000 C
0.305556 0.096225 -0.000000 C
0.638889 0.096225 -0.000000 C
0.361111 0.096225 -0.000000 C
