POSCAR file written by OVITO
1
1.0 0.0 0.0
0.0 4.6 0.0
0.0 0.0 5.0
C 
30 
Cartesian
0.333333 0.8660254 0.0
0.666667 0.8660254 0.0
0.333333 0.2886751 0.0
0.333333 1.4433756 0.0
0.666667 0.2886751 0.0
0.666667 1.4433756 0.0
0.833333 0.5773503 0.0
0.166667 0.5773503 0.0
0.333333 2.0207257 0.0
0.833333 1.1547005 0.0
0.166667 1.1547005 0.0
0.666667 2.0207257 0.0
0.333333 2.5980761 0.0
0.833333 1.7320508 0.0
0.166667 1.7320508 0.0
0.666667 2.5980761 0.0
0.333333 3.1754263 0.0
0.166667 2.309401 0.0
0.833333 2.309401 0.0
0.666667 3.1754263 0.0
0.666667 3.7527764 0.0
0.166667 2.8867512 0.0
0.333333 3.7527764 0.0
0.833333 2.8867512 0.0
0.166667 3.4641016 0.0
0.333333 4.3301268 0.0
0.833333 3.4641016 0.0
0.666667 4.3301268 0.0
0.166667 4.0414515 0.0
0.833333 4.0414515 0.0
