C14
1.0
1.000000 0.000000 0.000000
-0.000000 11.547005 0.000000
0.000000 0.000000 5.000000
C
14
direct
0.333333 0.075000 -0.000000 C
0.666667 0.075000 -0.000000 C
0.666667 0.125000 -0.000000 C
0.333333 0.025000 -0.000000 C
0.166667 0.050000 -0.000000 C
0.333333 0.125000 -0.000000 C
0.833333 0.050000 -0.000000 C
0.666667 0.025000 -0.000000 C
0.333333 0.175000 -0.000000 C
0.666667 0.175000 -0.000000 C
0.833333 0.100000 -0.000000 C
0.166667 0.100000 -0.000000 C
0.166667 0.150000 -0.000000 C
0.833333 0.150000 -0.000000 C
