C142
1.0
2.000000 0.000000 0.000000
0.000000 11.547005 0.000000
0.000000 0.000000 5.000000
C
142
direct
0.166667 0.075000 -0.000000 C
0.333333 0.075000 -0.000000 C
0.083333 0.050000 -0.000000 C
0.416667 0.050000 -0.000000 C
0.166667 0.125000 -0.000000 C
0.333333 0.025000 -0.000000 C
0.166667 0.025000 -0.000000 C
0.333333 0.125000 -0.000000 C
0.333333 0.175000 -0.000000 C
0.083333 0.100000 -0.000000 C
0.416667 0.100000 -0.000000 C
0.166667 0.175000 -0.000000 C
0.083333 0.150000 -0.000000 C
0.416667 0.150000 -0.000000 C
0.666667 0.075000 -0.000000 C
0.833333 0.075000 -0.000000 C
0.583333 0.050000 -0.000000 C
0.916667 0.050000 -0.000000 C
0.666667 0.125000 -0.000000 C
0.833333 0.025000 -0.000000 C
0.666667 0.025000 -0.000000 C
0.833333 0.125000 -0.000000 C
0.833333 0.175000 -0.000000 C
0.583333 0.100000 -0.000000 C
0.916667 0.100000 -0.000000 C
0.666667 0.175000 -0.000000 C
0.583333 0.150000 -0.000000 C
0.833333 0.225000 -0.000000 C
0.666667 0.225000 -0.000000 C
0.916667 0.150000 -0.000000 C
0.916667 0.200000 -0.000000 C
0.583333 0.200000 -0.000000 C
1.166667 0.125000 -0.000000 C
1.333333 0.125000 -0.000000 C
1.083333 0.100000 -0.000000 C
1.416667 0.100000 -0.000000 C
1.166667 0.175000 -0.000000 C
1.333333 0.075000 -0.000000 C
1.166667 0.075000 -0.000000 C
1.333333 0.175000 -0.000000 C
1.333333 0.225000 -0.000000 C
1.083333 0.150000 -0.000000 C
1.416667 0.150000 -0.000000 C
1.166667 0.225000 -0.000000 C
1.083333 0.200000 -0.000000 C
1.416667 0.200000 -0.000000 C
1.666667 0.125000 -0.000000 C
1.833333 0.125000 -0.000000 C
1.583333 0.100000 -0.000000 C
1.916667 0.100000 -0.000000 C
1.666667 0.175000 -0.000000 C
1.833333 0.075000 -0.000000 C
1.666667 0.075000 -0.000000 C
1.833333 0.175000 -0.000000 C
1.833333 0.225000 -0.000000 C
1.583333 0.150000 -0.000000 C
1.916667 0.150000 -0.000000 C
1.666667 0.225000 -0.000000 C
1.583333 0.200000 -0.000000 C
1.833333 0.275000 -0.000000 C
1.666667 0.275000 -0.000000 C
1.916667 0.200000 -0.000000 C
1.916667 0.250000 -0.000000 C
1.583333 0.250000 -0.000000 C
2.166667 0.175000 -0.000000 C
2.333333 0.175000 -0.000000 C
2.083333 0.150000 -0.000000 C
2.416667 0.150000 -0.000000 C
2.166667 0.225000 -0.000000 C
2.333333 0.125000 -0.000000 C
2.166667 0.125000 -0.000000 C
2.333333 0.225000 -0.000000 C
2.333333 0.275000 -0.000000 C
2.083333 0.200000 -0.000000 C
2.416667 0.200000 -0.000000 C
2.166667 0.275000 -0.000000 C
2.083333 0.250000 -0.000000 C
2.416667 0.250000 -0.000000 C
2.666667 0.125000 -0.000000 C
2.833333 0.125000 -0.000000 C
2.583333 0.100000 -0.000000 C
2.916667 0.100000 -0.000000 C
2.666667 0.175000 -0.000000 C
2.833333 0.075000 -0.000000 C
2.666667 0.075000 -0.000000 C
2.833333 0.175000 -0.000000 C
2.833333 0.225000 -0.000000 C
2.583333 0.150000 -0.000000 C
2.916667 0.150000 -0.000000 C
2.666667 0.225000 -0.000000 C
2.583333 0.200000 -0.000000 C
2.833333 0.275000 -0.000000 C
2.666667 0.275000 -0.000000 C
2.916667 0.200000 -0.000000 C
2.916667 0.250000 -0.000000 C
2.583333 0.250000 -0.000000 C
3.166667 0.125000 -0.000000 C
3.333333 0.125000 -0.000000 C
3.083333 0.100000 -0.000000 C
3.416667 0.100000 -0.000000 C
3.166667 0.175000 -0.000000 C
3.333333 0.075000 -0.000000 C
3.166667 0.075000 -0.000000 C
3.333333 0.175000 -0.000000 C
3.333333 0.225000 -0.000000 C
3.083333 0.150000 -0.000000 C
3.416667 0.150000 -0.000000 C
3.166667 0.225000 -0.000000 C
3.083333 0.200000 -0.000000 C
3.416667 0.200000 -0.000000 C
3.666667 0.075000 -0.000000 C
3.833333 0.075000 -0.000000 C
3.583333 0.050000 -0.000000 C
3.916667 0.050000 -0.000000 C
3.666667 0.125000 -0.000000 C
3.833333 0.025000 -0.000000 C
3.666667 0.025000 -0.000000 C
3.833333 0.125000 -0.000000 C
3.833333 0.175000 -0.000000 C
3.583333 0.100000 -0.000000 C
3.916667 0.100000 -0.000000 C
3.666667 0.175000 -0.000000 C
3.583333 0.150000 -0.000000 C
3.833333 0.225000 -0.000000 C
3.666667 0.225000 -0.000000 C
3.916667 0.150000 -0.000000 C
3.916667 0.200000 -0.000000 C
3.583333 0.200000 -0.000000 C
4.166667 0.075000 -0.000000 C
4.333333 0.075000 -0.000000 C
4.083333 0.050000 -0.000000 C
4.416667 0.050000 -0.000000 C
4.166667 0.125000 -0.000000 C
4.333333 0.025000 -0.000000 C
4.166667 0.025000 -0.000000 C
4.333333 0.125000 -0.000000 C
4.333333 0.175000 -0.000000 C
4.083333 0.100000 -0.000000 C
4.416667 0.100000 -0.000000 C
4.166667 0.175000 -0.000000 C
4.083333 0.150000 -0.000000 C
4.416667 0.150000 -0.000000 C
