C56
1.0
2.019726 0.000000 0.000000
-0.000000 2.000000 0.000000
0.000000 0.000000 5.000000
C
56
direct
-0.000000 -0.416667 0.000000 C
0.428784 -0.333333 -0.000000 C
0.428784 -0.166667 -0.000000 C
-0.000000 -0.083333 0.000000 C
0.000000 0.083333 -0.000000 C
0.428784 0.166667 -0.000000 C
0.428784 0.333333 -0.000000 C
0.000000 0.416667 -0.000000 C
0.142928 0.166667 -0.000000 C
0.142928 0.333333 -0.000000 C
0.428784 -0.666667 0.000000 C
0.142928 0.833333 -0.000000 C
0.714639 0.333333 -0.000000 C
0.285856 -0.083333 -0.000000 C
0.285856 0.083333 -0.000000 C
0.142928 -0.333333 0.000000 C
-0.000000 -0.916667 0.000000 C
0.142928 0.666667 -0.000000 C
0.428784 0.666667 -0.000000 C
0.714639 0.166667 -0.000000 C
0.285856 -0.416667 0.000000 C
0.285856 -0.916667 0.000000 C
0.428784 -0.833333 0.000000 C
0.000000 0.916667 -0.000000 C
0.000000 0.583333 -0.000000 C
0.714639 -0.833333 0.000000 C
0.714639 -0.333333 -0.000000 C
0.142928 -0.166667 0.000000 C
0.285856 0.416667 -0.000000 C
0.714639 -0.166667 -0.000000 C
-0.000000 -0.583333 0.000000 C
0.285856 -0.583333 0.000000 C
0.714639 -0.666667 -0.000000 C
0.428784 0.833333 -0.000000 C
0.142928 -0.666667 0.000000 C
0.571711 0.416667 -0.000000 C
0.714639 0.666667 -0.000000 C
0.142928 -0.833333 0.000000 C
0.571711 0.083333 -0.000000 C
0.285856 0.583333 -0.000000 C
0.571711 -0.583333 0.000000 C
0.571711 -0.416667 -0.000000 C
0.571711 -0.916667 0.000000 C
0.571711 -0.083333 -0.000000 C
0.714639 0.833333 -0.000000 C
0.285856 0.916667 -0.000000 C
0.857567 -0.083333 -0.000000 C
0.571711 0.916667 -0.000000 C
0.857567 -0.583333 -0.000000 C
0.571711 0.583333 -0.000000 C
0.857567 -0.416667 -0.000000 C
0.857567 -0.916667 0.000000 C
0.857567 0.416667 -0.000000 C
0.857567 0.083333 -0.000000 C
0.857567 0.916667 -0.000000 C
0.857567 0.583333 -0.000000 C
