C30
1.0
1.732051 0.000000 0.000000
-0.000000 16.000000 0.000000
0.000000 0.000000 5.000000
C
30
direct
0.000000 0.010417 -0.000000 C
0.500000 0.020833 -0.000000 C
0.500000 0.041667 -0.000000 C
0.000000 0.052083 -0.000000 C
0.833333 0.041667 -0.000000 C
0.833333 0.020833 -0.000000 C
0.500000 0.104167 -0.000000 C
0.500000 0.083333 -0.000000 C
0.333333 0.052083 -0.000000 C
0.833333 0.083333 -0.000000 C
0.166667 0.020833 -0.000000 C
0.333333 0.010417 -0.000000 C
0.000000 0.072917 -0.000000 C
0.833333 0.104167 -0.000000 C
0.333333 0.114583 -0.000000 C
0.000000 0.114583 -0.000000 C
0.333333 0.072917 -0.000000 C
0.166667 0.041667 -0.000000 C
0.166667 0.104167 -0.000000 C
0.833333 0.145833 -0.000000 C
0.666667 0.010417 -0.000000 C
0.500000 0.145833 -0.000000 C
0.666667 0.114583 -0.000000 C
0.666667 0.052083 -0.000000 C
0.166667 0.083333 -0.000000 C
0.666667 0.072917 -0.000000 C
0.333333 0.135417 -0.000000 C
0.666667 0.135417 -0.000000 C
0.000000 0.135417 -0.000000 C
0.166667 0.145833 -0.000000 C
